c generated by sgen1
c Command: ./sgen1 -unsat -n 9 
p cnf 9 28
-2 -3 -4 0
-1 -3 -4 0
-1 -2 -4 0
-1 -2 -3 0
-5 -6 -7  0
-5 -6 -8  0
-5 -6 -9  0
-5 -7 -8  0
-5 -7 -9  0
-5 -8 -9  0
-6 -7 -8  0
-6 -7 -9  0
-6 -8 -9  0
-7 -8 -9  0
4 2 6 0
7 2 6 0
7 4 6 0
7 4 2 0
3 8 5  0
3 8 9  0
3 8 1  0
3 5 9  0
3 5 1  0
3 9 1  0
8 5 9  0
8 5 1  0
8 9 1  0
5 9 1  0
